9
0, 177, 127, 593, 226, 637, 648, 606, 491
177, 0, 207, 640, 50, 687, 572, 609, 317
127, 207, 0, 470, 252, 515, 537, 478, 476
593, 640, 470, 0, 668, 47, 426, 152, 762
226, 50, 252, 668, 0, 715, 567, 626, 271
637, 687, 515, 47, 715, 0, 456, 178, 808
648, 572, 537, 426, 567, 456, 0, 278, 493
606, 609, 478, 152, 626, 178, 278, 0, 668
491, 317, 476, 762, 271, 808, 493, 668, 0
